117726
119139
119159
118802
116434
119454
119749
118288
117779
119125
217318
219022
217772
216802
213809
215013
217896
219949
214332
220833
304344
302332
302354
300743
304344
301730
304949
296437
301313
307014
